nApps = 215
nRes = 9
nActs = 422
nNetworks = 6

assignmentToResources = [1,1,2,1,3,3,2,1,2,2,2,2,2,2,1,2,2,2,1,1,1,2,1,2,1,2,3,2,3,2,2,1,2,2,3,1,3,2,1,1,2,1,2,3,1,3,1,1,1,1,3,1,1,1,3,3,3,1,3,2,3,2,2,3,2,1,3,3,2,2,2,2,2,3,1,2,1,3,1,2,2,1,2,3,3,1,2,2,2,2,2,3,3,1,2,3,2,2,2,2,4,4,4,4,4,4,4,5,5,5,4,6,6,6,6,6,6,6,5,5,5,5,4,4,4,4,4,5,5,5,5,5,5,5,5,5,5,4,4,5,5,5,5,5,4,4,4,4,4,5,4,4,4,4,4,5,6,6,6,6,5,4,4,5,5,5,5,5,5,5,5,5,4,4,4,4,6,6,5,5,4,4,4,4,5,5,5,4,4,4,4,5,5,6,6,6,4,4,4,4,4,4,4,6,6,4,6,4,6,6,6,6,6,5,5,6,5,5,5,4,5,5,5,5,5,6,5,4,4,6,6,6,5,6,6,6,5,5,5,5,5,5,7,4,9,6,8,4,9,5,7,4,8,4,9,6,7,6,8,4,8,4,9,6,7,4,8,6,8,5,9,5,9,6,7,4,8,5,7,6,8,8,8,9,8,9,8,8,7,9,7,8,8,7,8,8,8,7,8,7,7,9,7,8,8,8,8,8,7,7,9,9,7,7,9,9,7,9,8,9,9,7,9,7,7,8,9,8,9,8,9,9,8,9,9,9,7,8,8,7,8,7,8,8,9,9,7,9,7,7,9,7,7,8,9,8,8,8,7,7,7,8,9,9,8,9,9,7,9,9,8,9,7,9,8,8,7,8,8,9,8,8,8,8,7,8,9,8,8,8,7,8,7,7,9,7,8,9,7,9,8,9,7,7,7,7,8,7,8,8,8,8,8,7,8,8,8,9,9,9,9,7];

processingTimes = [160,128,144,72,56,160,56,112,48,136,120,96,80,64,56,136,72,112,168,144,112,128,104,136,144,96,72,72,168,40,160,136,88,136,56,120,128,112,168,112,136,144,104,128,168,120,112,120,112,48,136,88,120,128,72,128,136,112,112,168,136,64,112,160,144,80,112,80,104,88,112,112,136,112,128,136,96,168,120,48,80,80,104,128,144,104,128,72,136,112,120,128,160,120,128,120,136,136,128,104,3,4,7,4,5,5,5,4,4,1000,3,1000,4,23,4,4,3,3,4,1000,1000,3,4,4,1000,3,3,3,3,3,4,4,4,3,4,4,3,4,4,1000,3,3,1000,4,5,4,5,8,4,5,5,3,1000,3,3,4,4,8,1000,4,3,4,4,4,4,4,1000,8,3,3,4,4,3,3,3,3,4,4,5,3,3,3,1000,4,4,5,4,4,1000,1000,3,1000,4,3,1000,3,4,4,1000,5,8,3,4,8,4,3,3,8,3,1000,4,1000,1000,4,1000,3,3,1000,1000,4,4,4,3,3,5,3,4,3,3,8,200,200,4,3,1000,1000,1000,3,1000,1000,3,5,5,4,4,4,4,4,4,5,5,3,3,4,4,3,3,8,8,3,3,3,3,4,4,12,12,4,4,5,5,1000,1000,3,3,4,4,3,3,3,3,3,4,7,4,5,5,5,4,4,1000,3,1000,4,23,4,4,3,3,4,1000,1000,3,4,4,1000,3,3,3,3,3,4,4,4,3,4,4,3,4,4,1000,3,3,1000,4,5,4,5,8,4,5,5,3,1000,3,3,4,4,8,1000,4,3,4,4,4,4,4,1000,8,3,3,4,4,3,3,3,3,4,4,5,3,3,3,1000,4,4,5,4,4,1000,1000,3,1000,4,3,1000,3,4,4,1000,5,8,3,4,8,4,3,3,8,3,1000,4,1000,1000,4,1000,3,3,1000,1000,4,4,4,3,3,5,3,4,3,3,8,200,200,4,3,1000,1000,1000,3,1000,1000,3];

periods = [20000,5000,20000,20000,20000,2000,100000,10000,10000,10000,20000,100000,10000,20000,20000,20000,100000,50000,20000,10000,100000,10000,10000,50000,20000,20000,10000,100000,100000,10000,20000,100000,100000,20000,20000,20000,20000,100000,100000,10000,2000,20000,10000,10000,10000,20000,10000,50000,10000,10000,5000,10000,10000,10000,20000,50000,100000,5000,100000,10000,10000,10000,20000,20000,50000,20000,20000,10000,100000,100000,100000,10000,20000,10000,100000,10000,100000,2000,10000,20000,20000,10000,20000,50000,10000,2000,100000,20000,20000,100000,100000,20000,20000,20000,100000,100000,100000,50000,10000,100000,20000,20000,5000,5000,5000,5000,5000,20000,20000,20000,20000,20000,20000,20000,20000,20000,2000,2000,100000,100000,100000,100000,10000,10000,10000,10000,10000,10000,10000,10000,10000,10000,20000,100000,100000,100000,20000,20000,20000,20000,100000,100000,50000,50000,10000,10000,100000,100000,100000,10000,10000,20000,20000,20000,20000,20000,10000,10000,10000,100000,10000,100000,100000,100000,100000,100000,20000,20000,20000,20000,20000,20000,20000,20000,20000,20000,20000,20000,100000,100000,100000,100000,10000,10000,2000,2000,2000,20000,20000,20000,20000,10000,10000,10000,10000,10000,10000,10000,10000,10000,50000,10000,10000,5000,5000,10000,100000,5000,100000,100000,100000,10000,10000,20000,20000,20000,50000,50000,50000,20000,100000,100000,100000,10000,20000,10000,10000,100000,100000,2000,2000,2000,20000,50000,10000,10000,100000,100000,100000,50000,100000,20000,20000,20000,20000,20000,20000,20000,20000,20000,20000,20000,20000,20000,20000,10000,10000,10000,10000,10000,10000,20000,20000,10000,10000,10000,10000,50000,50000,50000,50000,20000,20000,10000,10000,10000,10000,10000,10000,10000,10000,20000,20000,5000,5000,5000,5000,5000,20000,20000,20000,20000,20000,20000,20000,20000,20000,2000,2000,100000,100000,100000,100000,10000,10000,10000,10000,10000,10000,10000,10000,10000,10000,20000,100000,100000,100000,20000,20000,20000,20000,100000,100000,50000,50000,10000,10000,100000,100000,100000,10000,10000,20000,20000,20000,20000,20000,10000,10000,10000,100000,10000,100000,100000,100000,100000,100000,20000,20000,20000,20000,20000,20000,20000,20000,20000,20000,20000,20000,100000,100000,100000,100000,10000,10000,2000,2000,2000,20000,20000,20000,20000,10000,10000,10000,10000,10000,10000,10000,10000,10000,50000,10000,10000,5000,5000,10000,100000,5000,100000,100000,100000,10000,10000,20000,20000,20000,50000,50000,50000,20000,100000,100000,100000,10000,20000,10000,10000,100000,100000,2000,2000,2000,20000,50000,10000,10000,100000,100000,100000,50000,100000];

assignmentToClusters = [1,2,3,3,3,4,5,6,7,8,9,10,11,1,12,3,10,13,14,15,16,17,18,19,20,21,15,22,23,15,24,25,10,26,3,27,14,28,29,30,31,32,30,33,30,1,11,34,35,36,37,38,39,40,41,42,43,44,45,11,46,47,48,49,50,51,52,6,53,54,55,56,3,30,57,33,58,59,60,61,62,63,64,19,11,65,66,67,68,69,70,24,3,3,71,23,72,19,73,74,75,76,77,78,79,80,81,82,83,84,85,86,87,88,89,90,91,92,93,94,95,96,97,98,99,100,101,102,103,104,105,106,107,108,109,110,111,112,113,114,115,116,117,118,119,120,121,122,123,124,125,126,127,128,129,130,131,132,133,134,135,136,137,138,139,140,141,142,143,144,145,146,147,148,149,150,151,152,153,154,155,156,157,158,159,160,161,162,163,164,165,166,167,168,169,170,171,172,173,174,175,176,177,178,179,180,181,182,183,184,185,186,187,188,189,190,191,192,193,194,195,196,197,198,199,200,201,202,203,204,205,206,207,208,209,210,211,212,213,214,215,1,1,1,1,3,3,3,3,3,3,3,3,3,3,6,6,11,11,11,11,14,14,15,15,15,15,19,19,19,19,24,24,30,30,30,30,30,30,33,33,75,76,77,78,79,80,81,82,83,84,85,86,87,88,89,90,91,92,93,94,95,96,97,98,99,100,101,102,103,104,105,106,107,108,109,110,111,112,113,114,115,116,117,118,119,120,121,122,123,124,125,126,127,128,129,130,131,132,133,134,135,136,137,138,139,140,141,142,143,144,145,146,147,148,149,150,151,152,153,154,155,156,157,158,159,160,161,162,163,164,165,166,167,168,169,170,171,172,173,174,175,176,177,178,179,180,181,182,183,184,185,186,187,188,189,190,191,192,193,194,195,196,197,198,199,200,201,202,203,204,205,206,207,208,209,210,211,212,213,214,215];

precedenceAdjList = [[242],[],[246],[],[254],[],[],[256],[],[],[],[16],[258,260],[],[],[2],[],[],[],[264],[],[],[],[268],[],[],[],[],[95],[266],[],[],[11],[],[],[],[262],[],[],[274],[],[],[276],[],[278],[244],[],[],[],[],[],[],[],[],[],[],[],[],[],[12],[],[],[],[],[],[],[],[],[],[],[],[],[252],[],[],[280],[],[],[],[],[],[],[],[270],[],[],[],[],[],[],[],[272],[34,248],[250],[],[],[],[],[],[],[],[],[],[],[],[],[],[],[],[],[],[],[],[],[],[],[],[],[],[],[],[],[],[],[],[],[],[],[],[],[],[],[],[],[],[],[],[],[],[],[],[],[],[],[],[],[],[],[],[],[],[],[],[],[],[],[],[],[],[],[],[],[],[],[],[],[],[],[],[],[],[],[],[],[],[],[],[],[],[],[],[],[],[],[],[],[],[],[],[],[],[],[],[],[],[],[],[],[],[],[],[],[],[],[],[],[],[],[],[],[],[],[],[],[],[],[],[],[],[],[],[],[],[],[],[],[],[],[],[],[],[],[],[],[],[],[],[],[],[],[],[13],[241],[0],[243],[92],[245],[93],[247],[72],[249],[3],[251],[93],[253],[67],[255],[84],[257],[46],[259],[18],[261],[26],[263],[19],[265],[83],[267],[97],[269],[30],[271],[73],[273],[39],[275],[42],[277],[43],[279],[100],[101],[102],[103],[104],[105],[106],[107],[108],[109],[110],[111],[112],[113],[114],[115],[116],[117],[118],[119],[120],[121],[122],[123],[124],[125],[126],[127],[128],[129],[130],[131],[132],[133],[134],[135],[136],[137],[138],[139],[140],[141],[142],[143],[144],[145],[146],[147],[148],[149],[150],[151],[152],[153],[154],[155],[156],[157],[158],[159],[160],[161],[162],[163],[164],[165],[166],[167],[168],[169],[170],[171],[172],[173],[174],[175],[176],[177],[178],[179],[180],[181],[182],[183],[184],[185],[186],[187],[188],[189],[190],[191],[192],[193],[194],[195],[196],[197],[198],[199],[200],[201],[202],[203],[204],[205],[206],[207],[208],[209],[210],[211],[212],[213],[214],[215],[216],[217],[218],[219],[220],[221],[222],[223],[224],[225],[226],[227],[228],[229],[230],[231],[232],[233],[234],[235],[236],[237],[238],[239],[240]];